# Objective value = 298.637361051223
x[0] 0
x[1] 1
x[2] 0
x[3] 1
x[4] 0
x[5] 0
x[6] 1
x[7] 0
x[8] 0
x[9] 0
x[10] 1
x[11] 0
x[12] 0
x[13] 0
x[14] 1
x[15] 0
x[16] 0
x[17] 0
x[18] 0
x[19] 0
x[20] 0
x[21] 0
x[22] 0
x[23] 0
x[24] 0
x[25] 0
x[26] 1
x[27] 1
x[28] 0
x[29] 0
x[30] 0
x[31] 0
x[32] 1
x[33] 0
x[34] 0
x[35] 1
x[36] 0
x[37] 1
x[38] 0
x[39] 1
x[40] 1
x[41] 1
x[42] 0
x[43] 0
x[44] 0
x[45] 0
x[46] 0
x[47] 0
x[48] 1
x[49] 1
x[50] 0
x[51] 0
x[52] 1
x[53] 0
x[54] 1
x[55] 0
x[56] 1
x[57] 0
x[58] 0
x[59] 1
x[60] 1
x[61] 1
x[62] 1
x[63] 1
x[64] 0
x[65] 1
x[66] 1
x[67] 0
x[68] 1
x[69] 1
x[70] 0
x[71] 1
x[72] 1
x[73] 1
x[74] 1
x[75] 1
x[76] 0
x[77] 0
x[78] 0
x[79] 0
x[80] 0
x[81] 0
x[82] 1
x[83] 0
x[84] 0
x[85] 1
x[86] 0
x[87] 0
x[88] 0
x[89] 0
x[90] 1
x[91] 0
x[92] 0
x[93] 0
x[94] 1
x[95] 0
x[96] 1
x[97] 1
x[98] 1
x[99] 1
x[100] 0
x[101] 0
x[102] 1
x[103] 1
x[104] 1
x[105] 1
x[106] 0
x[107] 1
x[108] 1
x[109] 1
x[110] 0
x[111] 1
x[112] 1
x[113] 0
x[114] 1
x[115] 1
x[116] 0
x[117] 0
x[118] 1
x[119] 1
x[120] 1
x[121] 0
x[122] 0
x[123] 0
x[124] 1
x[125] 1
x[126] 0
x[127] 0
x[128] 1
x[129] 1
x[130] 0
x[131] 1
x[132] 1
x[133] 0
x[134] 0
x[135] 0
x[136] 1
x[137] 1
x[138] 1
x[139] 0
x[140] 1
x[141] 1
x[142] 0
x[143] 0
x[144] 0
x[145] 1
x[146] 1
x[147] 0
x[148] 0
x[149] 1
x[150] 0
x[151] 0
x[152] 0
x[153] 0
x[154] 1
x[155] 1
x[156] 1
x[157] 1
x[158] 0
x[159] 0
x[160] 1
x[161] 0
x[162] 1
x[163] 0
x[164] 1
x[165] 0
x[166] 1
x[167] 1
x[168] 1
x[169] 1
x[170] 0
x[171] 1
x[172] 1
x[173] 0
x[174] 1
x[175] 1
x[176] 0
x[177] 1
x[178] 1
x[179] 0
x[180] 0
x[181] 1
x[182] 0
x[183] 0
x[184] 1
x[185] 1
x[186] 0
x[187] 1
x[188] 0
x[189] 0
x[190] 0
x[191] 0
x[192] 1
x[193] 0
x[194] 0
x[195] 0
x[196] 0
x[197] 1
x[198] 0
x[199] 0
x[200] 1
x[201] 0
x[202] 0
x[203] 1
x[204] 0
x[205] 0
x[206] 1
x[207] 1
x[208] 0
x[209] 1
x[210] 1
x[211] 0
x[212] 1
x[213] 0
x[214] 0
x[215] 1
x[216] 0
x[217] 1
x[218] 1
x[219] 1
x[220] 0
x[221] 0
x[222] 0
x[223] 1
x[224] 0
x[225] 1
x[226] 1
x[227] 1
x[228] 1
x[229] 0
x[230] 1
x[231] 0
x[232] 1
x[233] 1
x[234] 0
x[235] 0
x[236] 0
x[237] 1
x[238] 1
x[239] 1
x[240] 0
x[241] 1
x[242] 0
x[243] 1
x[244] 1
x[245] 1
x[246] 0
x[247] 1
x[248] 0
x[249] 1
x[250] 0
x[251] 1
x[252] 0
x[253] 1
x[254] 1
x[255] 0
x[256] 1
x[257] 0
x[258] 0
x[259] 1
x[260] 1
x[261] 0
x[262] 0
x[263] 0
x[264] 0
x[265] 1
x[266] 0
x[267] 0
x[268] 0
x[269] 0
x[270] 1
x[271] 0
x[272] 1
x[273] 1
x[274] 1
x[275] 0
x[276] 0
x[277] 0
x[278] 0
x[279] 1
x[280] 0
x[281] 1
x[282] 1
x[283] 1
x[284] 1
x[285] 0
x[286] 0
x[287] 1
x[288] 0
x[289] 0
x[290] 1
x[291] 1
x[292] 1
x[293] 1
x[294] 1
x[295] 0
x[296] 0
x[297] 0
x[298] 0
x[299] 1
x[300] 0
x[301] 0
x[302] 0
x[303] 0
x[304] 0
x[305] 1
x[306] 0
x[307] 0
x[308] 0
x[309] 0
x[310] 0
x[311] 0
x[312] 0
x[313] 0
x[314] 0
x[315] 1
x[316] 0
x[317] 1
x[318] 1
x[319] 0
x[320] 1
x[321] 1
x[322] 0
x[323] 1
x[324] 0
x[325] 0
x[326] 1
x[327] 1
x[328] 1
x[329] 0
x[330] 0
x[331] 0
x[332] 0
x[333] 1
x[334] 0
x[335] 0
x[336] 1
x[337] 1
x[338] 0
x[339] 0
x[340] 1
x[341] 0
x[342] 1
x[343] 0
x[344] 0
x[345] 1
x[346] 0
x[347] 0
x[348] 1
x[349] 0
x[350] 0
x[351] 1
x[352] 0
x[353] 0
x[354] 1
x[355] 0
x[356] 0
x[357] 1
x[358] 1
x[359] 0
x[360] 1
x[361] 1
x[362] 0
x[363] 1
x[364] 0
x[365] 0
x[366] 1
x[367] 0
x[368] 0
x[369] 1
x[370] 0
x[371] 1
x[372] 0
x[373] 0
x[374] 1
x[375] 0
x[376] 0
x[377] 0
x[378] 1
x[379] 1
x[380] 1
x[381] 0
x[382] 1
x[383] 0
x[384] 1
x[385] 1
x[386] 0
x[387] 0
x[388] 1
x[389] 0
x[390] 0
x[391] 1
x[392] 0
x[393] 0
x[394] 0
x[395] 0
x[396] 1
x[397] 0
x[398] 0
x[399] 1
x[400] 0
x[401] 1
x[402] 1
x[403] 0
x[404] 1
x[405] 1
x[406] 1
x[407] 1
x[408] 1
x[409] 0
x[410] 1
x[411] 0
x[412] 0
x[413] 0
x[414] 1
x[415] 0
x[416] 0
x[417] 0
x[418] 1
x[419] 0
x[420] 0
x[421] 0
x[422] 1
x[423] 1
x[424] 1
x[425] 1
x[426] 0
x[427] 1
x[428] 1
x[429] 1
x[430] 0
x[431] 1
x[432] 0
x[433] 1
x[434] 1
x[435] 0
x[436] 0
x[437] 0
x[438] 0
x[439] 1
x[440] 0
x[441] 1
x[442] 1
x[443] 0
x[444] 1
x[445] 1
x[446] 1
x[447] 0
x[448] 1
x[449] 1
x[450] 0
x[451] 0
x[452] 1
x[453] 0
x[454] 0
x[455] 0
x[456] 0
x[457] 0
x[458] 1
x[459] 0
x[460] 1
x[461] 0
x[462] 1
x[463] 1
x[464] 1
x[465] 0
x[466] 1
x[467] 1
x[468] 1
x[469] 0
x[470] 0
x[471] 1
x[472] 0
x[473] 0
x[474] 0
x[475] 1
x[476] 1
x[477] 0
x[478] 1
x[479] 0
x[480] 0
x[481] 1
x[482] 0
x[483] 1
x[484] 1
x[485] 1
x[486] 0
x[487] 0
x[488] 0
x[489] 0
x[490] 1
x[491] 0
x[492] 0
x[493] 0
x[494] 0
x[495] 0
x[496] 0
x[497] 0
x[498] 1
x[499] 0
x[500] 1
x[501] 1
x[502] 0
x[503] 0
x[504] 0
x[505] 0
x[506] 1
x[507] 1
x[508] 1
x[509] 1
x[510] 1
x[511] 1
x[512] 1
x[513] 0
x[514] 0
x[515] 0
x[516] 1
x[517] 0
x[518] 1
x[519] 1
x[520] 1
x[521] 1
x[522] 0
x[523] 0
x[524] 1
x[525] 1
x[526] 0
x[527] 0
x[528] 1
x[529] 1
x[530] 0
x[531] 1
x[532] 0
x[533] 0
x[534] 1
x[535] 1
x[536] 0
x[537] 1
x[538] 1
x[539] 1
x[540] 0
x[541] 1
x[542] 0
x[543] 0
x[544] 1
x[545] 1
x[546] 1
x[547] 0
x[548] 1
x[549] 0
x[550] 1
x[551] 0
x[552] 0
x[553] 0
x[554] 1
x[555] 0
x[556] 0
x[557] 1
x[558] 1
x[559] 1
x[560] 1
x[561] 0
x[562] 1
x[563] 0
x[564] 1
x[565] 0
x[566] 0
x[567] 1
x[568] 0
x[569] 0
x[570] 0
x[571] 1
x[572] 0
x[573] 0
x[574] 0
x[575] 1
x[576] 0
x[577] 1
x[578] 0
x[579] 1
x[580] 0
x[581] 0
x[582] 0
x[583] 0
x[584] 1
x[585] 0
x[586] 1
x[587] 1
x[588] 0
x[589] 1
x[590] 1
x[591] 0
x[592] 0
x[593] 1
x[594] 0
x[595] 0
x[596] 0
x[597] 0
x[598] 0
x[599] 0
x[600] 1
x[601] 0
x[602] 1
x[603] 0
x[604] 0
x[605] 1
x[606] 0
x[607] 0
x[608] 1
x[609] 1
x[610] 1
x[611] 0
x[612] 1
x[613] 0
x[614] 0
x[615] 0
x[616] 0
x[617] 1
x[618] 0
x[619] 0
x[620] 1
x[621] 1
x[622] 1
x[623] 1
x[624] 1
x[625] 0
x[626] 1
x[627] 0
x[628] 0
x[629] 1
x[630] 0
x[631] 1
x[632] 1
x[633] 1
x[634] 0
x[635] 0
x[636] 0
x[637] 0
x[638] 1
x[639] 0
x[640] 1
x[641] 0
x[642] 1
x[643] 1
x[644] 0
x[645] 0
x[646] 1
x[647] 1
x[648] 0
x[649] 0
x[650] 0
x[651] 1
x[652] 0
x[653] 0
x[654] 0
x[655] 0
x[656] 0
x[657] 0
x[658] 0
x[659] 1
x[660] 1
x[661] 0
x[662] 1
x[663] 1
x[664] 0
x[665] 1
x[666] 1
x[667] 0
x[668] 0
x[669] 0
x[670] 0
x[671] 1
x[672] 0
x[673] 1
x[674] 1
x[675] 0
x[676] 0
x[677] 0
x[678] 1
x[679] 0
x[680] 1
x[681] 1
x[682] 0
x[683] 1
x[684] 1
x[685] 1
x[686] 1
x[687] 1
x[688] 1
x[689] 0
x[690] 0
x[691] 0
x[692] 0
x[693] 1
x[694] 0
x[695] 1
x[696] 1
x[697] 0
x[698] 1
x[699] 1
x[700] 0
x[701] 0
x[702] 0
x[703] 1
x[704] 1
x[705] 0
x[706] 1
x[707] 0
x[708] 1
x[709] 1
x[710] 1
x[711] 0
x[712] 0
x[713] 1
x[714] 0
x[715] 1
x[716] 1
x[717] 1
x[718] 1
x[719] 1
x[720] 1
x[721] 1
x[722] 1
x[723] 1
x[724] 0
x[725] 0
x[726] 0
x[727] 1
x[728] 0
x[729] 0
x[730] 1
x[731] 1
x[732] 1
x[733] 1
x[734] 1
x[735] 0
x[736] 0
x[737] 1
x[738] 1
x[739] 0
x[740] 1
x[741] 1
x[742] 0
x[743] 0
x[744] 0
x[745] 0
x[746] 1
x[747] 1
x[748] 0
x[749] 0
x[750] 0
x[751] 1
x[752] 1
x[753] 1
x[754] 1
x[755] 0
x[756] 0
x[757] 1
x[758] 1
x[759] 0
x[760] 1
x[761] 1
x[762] 0
x[763] 1
x[764] 1
x[765] 1
x[766] 1
x[767] 0
x[768] 0
x[769] 0
x[770] 0
x[771] 0
x[772] 1
x[773] 0
x[774] 0
x[775] 1
x[776] 1
x[777] 1
x[778] 0
x[779] 0
x[780] 0
x[781] 1
x[782] 0
x[783] 0
x[784] 1
x[785] 1
x[786] 0
x[787] 1
x[788] 0
x[789] 1
x[790] 0
x[791] 1
x[792] 0
x[793] 1
x[794] 0
x[795] 0
x[796] 0
x[797] 1
x[798] 0
x[799] 0
x[800] 1
x[801] 1
x[802] 0
x[803] 0
x[804] 0
x[805] 0
x[806] 1
x[807] 1
x[808] 0
x[809] 1
x[810] 0
x[811] 0
x[812] 0
x[813] 0
x[814] 0
x[815] 1
x[816] 1
x[817] 0
x[818] 1
x[819] 0
x[820] 0
x[821] 0
x[822] 1
x[823] 0
x[824] 0
x[825] 1
x[826] 1
x[827] 1
x[828] 0
x[829] 0
x[830] 0
x[831] 1
x[832] 0
x[833] 1
x[834] 0
x[835] 1
x[836] 0
x[837] 1
x[838] 1
x[839] 0
x[840] 1
x[841] 1
x[842] 0
x[843] 0
x[844] 0
x[845] 0
x[846] 1
x[847] 1
x[848] 1
x[849] 0
x[850] 1
x[851] 1
x[852] 0
x[853] 0
x[854] 0
x[855] 0
x[856] 0
x[857] 1
x[858] 1
x[859] 1
x[860] 0
x[861] 1
x[862] 0
x[863] 1
x[864] 1
x[865] 0
x[866] 0
x[867] 0
x[868] 0
x[869] 0
x[870] 1
x[871] 1
x[872] 1
x[873] 1
x[874] 1
x[875] 1
x[876] 1
x[877] 1
x[878] 0
x[879] 1
x[880] 0
x[881] 1
x[882] 1
x[883] 1
x[884] 1
x[885] 1
x[886] 0
x[887] 1
x[888] 1
x[889] 1
x[890] 1
x[891] 1
x[892] 1
x[893] 1
x[894] 0
x[895] 0
x[896] 0
x[897] 1
x[898] 1
x[899] 1
x[900] 0
x[901] 0
x[902] 1
x[903] 0
x[904] 1
x[905] 1
x[906] 0
x[907] 1
x[908] 0
x[909] 1
x[910] 0
x[911] 1
x[912] 0
x[913] 1
x[914] 0
x[915] 0
x[916] 0
x[917] 0
x[918] 0
x[919] 0
x[920] 1
x[921] 0
x[922] 0
x[923] 0
x[924] 0
x[925] 1
x[926] 0
x[927] 1
x[928] 0
x[929] 1
x[930] 1
x[931] 0
x[932] 1
x[933] 1
x[934] 0
x[935] 1
x[936] 0
x[937] 0
x[938] 1
x[939] 1
x[940] 0
x[941] 0
x[942] 1
x[943] 1
x[944] 0
x[945] 1
x[946] 1
x[947] 1
x[948] 1
x[949] 1
x[950] 0
x[951] 0
x[952] 1
x[953] 1
x[954] 1
x[955] 0
x[956] 1
x[957] 1
x[958] 1
x[959] 1
x[960] 1
x[961] 1
x[962] 0
x[963] 0
x[964] 1
x[965] 1
x[966] 1
x[967] 0
x[968] 1
x[969] 1
x[970] 0
x[971] 1
x[972] 0
x[973] 1
x[974] 0
x[975] 0
x[976] 0
x[977] 1
x[978] 1
x[979] 0
x[980] 0
x[981] 1
x[982] 0
x[983] 1
x[984] 1
x[985] 0
x[986] 1
x[987] 1
x[988] 0
x[989] 0
x[990] 1
x[991] 1
x[992] 1
x[993] 1
x[994] 0
x[995] 0
x[996] 0
x[997] 0
x[998] 1
x[999] 1
